21
3 50 60 4 
3 36 9 53 
2 31 25 
3 12 19 32 
2 10 13 
2 7 58 
3 52 17 42 
3 15 26 28 
3 45 44 43 
3 18 39 41 
3 20 27 55 
3 1 2 3 
3 54 59 29 
3 21 48 47 
3 33 34 57 
3 51 49 11 
3 30 40 35 
3 8 5 37 
3 46 6 24 
3 14 22 56 
3 16 38 23 
